qbf_easy_train/easy_5895_SAT.qdimacs
p cnf 25 59
a 9 3 22 0
e 1 2 4 5 6 7 8 10 11 12 13 14 15 16 17 18 19 20 21 23 24 25 0
5 -3 0
5 4 0
3 -4 -5 0
-7 5 0
-7 -6 0
-5 6 7 0
-8 2 0
-8 7 0
-2 -7 8 0
9 -1 0
9 8 0
1 -8 -9 0
-10 -2 0
-10 4 0
2 -4 10 0
11 5 0
11 1 0
-5 -1 -11 0
-12 10 0
-12 -11 0
-10 11 12 0
13 8 0
13 12 0
-8 -12 -13 0
-9 -13 -14 0
9 13 -14 0
-9 13 14 0
9 -13 14 0
15 4 0
15 2 0
-4 -2 -15 0
17 -7 0
17 -16 0
7 16 -17 0
18 15 0
18 17 0
-15 -17 -18 0
-19 -14 0
-19 18 0
14 -18 19 0
20 -10 -21 0
-20 10 -21 0
20 10 21 0
-20 -10 21 0
23 22 0
23 1 0
-22 -1 -23 0
24 -21 0
24 23 0
21 -23 -24 0
-25 -19 0
-25 -24 0
19 24 25 0
-23 11 -20 2 0
-8 -10 -21 0
-25 13 21 17 -22 0
-12 14 16 -2 6 18 -19 0
23 19 11 24 0
25 0
