sat_easy_train/easy_5895_SAT.dimacs
p cnf 147 520
4 -2 0
4 -3 0
2 3 -4 0
1 -4 -5 0
-1 4 -5 0
1 4 5 0
-1 -4 5 0
-8 6 0
-8 7 0
-6 -7 8 0
-9 8 0
-9 7 0
-8 -7 9 0
10 5 0
10 9 0
-5 -9 -10 0
-11 2 -12 0
11 -2 -12 0
-11 -2 12 0
11 2 12 0
13 12 0
13 7 0
-12 -7 -13 0
11 -14 -15 0
-11 14 -15 0
11 14 15 0
-11 -14 15 0
16 13 0
16 15 0
-13 -15 -16 0
17 6 -18 0
-17 -6 -18 0
17 -6 18 0
-17 6 18 0
19 -2 0
19 -2 0
2 -19 0
18 19 -20 0
-18 -19 -20 0
18 -19 20 0
-18 19 20 0
-16 20 -21 0
16 -20 -21 0
-16 -20 21 0
16 20 21 0
-10 21 -22 0
10 -21 -22 0
-10 -21 22 0
10 21 22 0
-24 -23 0
-24 -19 0
23 19 24 0
-25 -15 0
-25 -1 0
15 1 25 0
24 25 -26 0
-24 -25 -26 0
24 -25 26 0
-24 25 26 0
26 7 -27 0
-26 -7 -27 0
26 -7 27 0
-26 7 27 0
-22 27 -28 0
22 -27 -28 0
-22 -27 28 0
22 27 28 0
8 9 -29 0
-8 -9 -29 0
8 -9 29 0
-8 9 29 0
30 -1 0
30 -29 0
1 29 -30 0
32 31 0
32 -2 0
-31 2 -32 0
-33 30 0
-33 32 0
-30 -32 33 0
34 14 0
34 33 0
-14 -33 -34 0
-16 -35 -36 0
16 35 -36 0
-16 35 36 0
16 -35 36 0
39 37 0
39 38 0
-37 -38 -39 0
-40 -18 0
-40 39 0
18 -39 40 0
-41 36 0
-41 -40 0
-36 40 41 0
-34 41 -42 0
34 -41 -42 0
-34 -41 42 0
34 41 42 0
28 -42 -43 0
-28 42 -43 0
28 42 43 0
-28 -42 43 0
-44 -12 0
-44 -14 0
12 14 44 0
-46 1 0
-46 -45 0
-1 45 46 0
44 -46 -47 0
-44 46 -47 0
44 46 47 0
-44 -46 47 0
-48 -14 -49 0
48 14 -49 0
-48 14 49 0
48 -14 49 0
-20 49 -50 0
20 -49 -50 0
-20 -49 50 0
20 49 50 0
51 14 0
51 -49 0
-14 49 -51 0
-50 -51 -52 0
50 51 -52 0
-50 51 52 0
50 -51 52 0
47 52 -53 0
-47 -52 -53 0
47 -52 53 0
-47 52 53 0
-35 23 -54 0
35 -23 -54 0
-35 -23 54 0
35 23 54 0
-35 54 -55 0
35 -54 -55 0
-35 -54 55 0
35 54 55 0
-56 53 0
-56 -55 0
-53 55 56 0
-57 -32 0
-57 -26 0
32 26 57 0
-31 -19 -58 0
31 19 -58 0
-31 19 58 0
31 -19 58 0
58 13 -59 0
-58 -13 -59 0
58 -13 59 0
-58 13 59 0
60 14 0
60 -18 0
-14 18 -60 0
37 7 -61 0
-37 -7 -61 0
37 -7 61 0
-37 7 61 0
62 61 0
62 -19 0
-61 19 -62 0
62 50 -63 0
-62 -50 -63 0
62 -50 63 0
-62 50 63 0
-64 60 0
-64 -63 0
-60 63 64 0
-60 64 -65 0
60 -64 -65 0
-60 -64 65 0
60 64 65 0
66 65 0
66 31 0
-65 -31 -66 0
59 -66 -67 0
-59 66 -67 0
59 66 67 0
-59 -66 67 0
68 -57 0
68 67 0
57 -67 -68 0
69 -23 0
69 -50 0
23 50 -69 0
-70 69 0
-70 -11 0
-69 11 70 0
6 8 -71 0
-6 -8 -71 0
6 -8 71 0
-6 8 71 0
-70 71 -72 0
70 -71 -72 0
-70 -71 72 0
70 71 72 0
-68 -72 -73 0
68 72 -73 0
-68 72 73 0
68 -72 73 0
74 -56 0
74 73 0
56 -73 -74 0
-43 74 -75 0
43 -74 -75 0
-43 -74 75 0
43 74 75 0
1 -38 -76 0
-1 38 -76 0
1 38 76 0
-1 -38 76 0
77 76 0
77 -40 0
-76 40 -77 0
-78 48 0
-78 -17 0
-48 17 78 0
78 -38 -79 0
-78 38 -79 0
78 38 79 0
-78 -38 79 0
80 8 0
80 -38 0
-8 38 -80 0
81 -62 0
81 -19 0
62 19 -81 0
82 80 0
82 81 0
-80 -81 -82 0
79 -82 -83 0
-79 82 -83 0
79 82 83 0
-79 -82 83 0
77 -83 -84 0
-77 83 -84 0
77 83 84 0
-77 -83 84 0
-85 -75 0
-85 84 0
75 -84 85 0
-16 45 -86 0
16 -45 -86 0
-16 -45 86 0
16 45 86 0
-87 -86 0
-87 33 0
86 -33 87 0
-46 -11 -88 0
46 11 -88 0
-46 11 88 0
46 -11 88 0
-89 18 -90 0
89 -18 -90 0
-89 -18 90 0
89 18 90 0
91 -88 0
91 -90 0
88 90 -91 0
92 -37 0
92 25 0
37 -25 -92 0
93 80 0
93 -76 0
-80 76 -93 0
80 35 -94 0
-80 -35 -94 0
80 -35 94 0
-80 35 94 0
-95 -39 0
-95 94 0
39 -94 95 0
-93 95 -96 0
93 -95 -96 0
-93 -95 96 0
93 95 96 0
-92 96 -97 0
92 -96 -97 0
-92 -96 97 0
92 96 97 0
98 -91 0
98 97 0
91 -97 -98 0
-99 87 0
-99 -98 0
-87 98 99 0
100 94 0
100 -24 0
-94 24 -100 0
-101 -14 0
-101 -24 0
14 24 101 0
-102 101 0
-102 -15 0
-101 15 102 0
-103 -50 0
-103 61 0
50 -61 103 0
-1 61 -104 0
1 -61 -104 0
-1 -61 104 0
1 61 104 0
-105 -38 0
-105 -104 0
38 104 105 0
106 -103 0
106 -105 0
103 105 -106 0
107 -102 0
107 106 0
102 -106 -107 0
100 -107 -108 0
-100 107 -108 0
100 107 108 0
-100 -107 108 0
-109 -80 0
-109 -1 0
80 1 109 0
-110 20 0
-110 -50 0
-20 50 110 0
-14 110 -111 0
14 -110 -111 0
-14 -110 111 0
14 110 111 0
-112 111 0
-112 -111 0
113 -50 0
113 -61 0
50 61 -113 0
-114 -112 0
-114 113 0
112 -113 114 0
35 6 -115 0
-35 -6 -115 0
35 -6 115 0
-35 6 115 0
-116 115 0
-116 81 0
-115 -81 116 0
-117 110 0
-117 -116 0
-110 116 117 0
-118 104 0
-118 2 0
-104 -2 118 0
117 118 -119 0
-117 -118 -119 0
117 -118 119 0
-117 118 119 0
-120 114 0
-120 -119 0
-114 119 120 0
-61 111 -121 0
61 -111 -121 0
-61 -111 121 0
61 111 121 0
122 121 0
122 36 0
-121 -36 -122 0
-123 -38 0
-123 -122 0
38 122 123 0
-120 -123 -124 0
120 123 -124 0
-120 123 124 0
120 -123 124 0
-109 124 -125 0
109 -124 -125 0
-109 -124 125 0
109 124 125 0
126 108 0
126 125 0
-108 -125 -126 0
127 99 0
127 126 0
-99 -126 -127 0
-128 85 0
-128 127 0
-85 -127 128 0
110 40 -129 0
-110 -40 -129 0
110 -40 129 0
-110 40 129 0
-13 -94 -130 0
13 94 -130 0
-13 94 130 0
13 -94 130 0
131 18 0
131 38 0
-18 -38 -131 0
132 86 0
132 -44 0
-86 44 -132 0
-133 131 0
-133 132 0
-131 -132 133 0
-133 -104 -134 0
133 104 -134 0
-133 104 134 0
133 -104 134 0
-135 -130 0
-135 134 0
130 -134 135 0
136 129 0
136 -135 0
-129 135 -136 0
-137 -45 0
-137 -58 0
45 58 137 0
-138 -81 0
-138 -137 0
81 137 138 0
-136 -138 -139 0
136 138 -139 0
-136 138 139 0
136 -138 139 0
65 33 -140 0
-65 -33 -140 0
65 -33 140 0
-65 33 140 0
141 -37 0
141 -9 0
37 9 -141 0
48 -110 -142 0
-48 110 -142 0
48 110 142 0
-48 -110 142 0
143 -13 0
143 142 0
13 -142 -143 0
141 143 -144 0
-141 -143 -144 0
141 -143 144 0
-141 143 144 0
140 -144 -145 0
-140 144 -145 0
140 144 145 0
-140 -144 145 0
139 145 -146 0
-139 -145 -146 0
139 -145 146 0
-139 145 146 0
128 -146 -147 0
-128 146 -147 0
128 146 147 0
-128 -146 147 0
89 -127 -61 26 65 0
52 133 135 34 0
86 -127 0
-61 99 -103 -70 -114 0
25 -6 134 0
89 8 -47 66 0
132 54 0
107 93 80 10 108 0
17 -33 -96 52 9 0
-89 40 0
-145 -98 47 -108 -72 76 0
-79 -122 -68 -60 54 49 0
-117 23 0
-72 3 0
-126 80 38 54 -5 -139 0
50 -8 13 -41 0
-84 120 -15 2 115 -124 0
134 -147 -43 0
-146 108 85 -112 0
91 -123 -44 0
-123 143 117 -142 12 0
-10 -54 61 0
-132 109 0
-92 -46 -27 -134 -64 0
-8 -21 0
-144 145 -26 0
61 110 -124 -105 97 0
104 -122 -16 0
-28 -1 -56 0
-92 -106 -62 -64 0
104 70 0
44 -64 101 0
104 97 -56 -101 8 0
-10 -11 0
-79 117 -62 26 0
92 52 -40 -66 0
-62 45 22 0
43 100 63 -56 0
-71 -50 16 -65 0
1 82 -53 -6 -107 0
-31 6 66 0
-115 30 67 55 -60 0
-7 -56 98 0
-15 -8 92 -97 0
-91 -92 -50 1 -81 -52 0
-138 -136 -91 -21 -83 0
-80 -11 95 0
-15 68 0
85 15 -129 -99 106 0
-43 -8 -51 -56 0
122 -111 106 -64 0
-27 48 -114 -145 -95 0
70 126 -52 141 -11 0
145 6 109 147 0
-37 -76 0
-103 16 100 -142 -47 0
-132 -126 38 29 55 0
64 -41 0
48 -127 0
7 95 -25 9 -87 0
110 -87 -82 0
-125 -11 0
-16 -73 115 -105 0
-80 123 124 9 134 0
-140 -125 0
132 -68 -15 -1 4 0
49 -119 0
-40 -17 0
147 0
